decompositions/zmienne_worki/g_100_100_10.td
s td 57 5 100
b 1 14 60 
b 2 31 42 56 
b 3 49 
b 4 20 54 87 96 
b 5 32 34 78 
b 6 44 
b 7 19 52 
b 8 77 
b 9 8 69 84 
b 10 100 
b 11 39 41 
b 12 45 81 
b 13 24 
b 14 91 
b 15 29 86 
b 16 27 47 
b 17 38 40 
b 18 10 59 
b 19 23 89 90 
b 20 4 
b 21 18 71 95 
b 22 80 
b 23 1 26 51 66 72 
b 24 16 99 
b 25 13 22 35 
b 26 48 79 
b 27 46 74 
b 28 36 
b 29 7 
b 30 37 58 
b 31 50 
b 32 67 
b 33 57 
b 34 21 63 83 
b 35 6 
b 36 94 
b 37 30 73 
b 38 70 
b 39 92 
b 40 75 
b 41 85 
b 42 55 
b 43 25 53 
b 44 9 
b 45 97 
b 46 2 15 98 
b 47 64 
b 48 93 
b 49 62 
b 50 3 43 
b 51 5 82 
b 52 65 76 
b 53 17 68 
b 54 12 
b 55 28 61 
b 56 33 
b 57 11 88 
1 2
1 3
2 4
3 5
4 6
5 7
6 8
7 9
8 10
9 11
10 12
11 13
12 14
13 15
14 16
15 17
16 18
18 19
19 20
20 21
21 22
22 23
23 24
24 25
25 26
26 27
27 28
28 29
29 30
30 31
31 32
32 33
33 34
34 35
35 36
36 37
37 38
38 39
39 40
40 41
41 42
42 43
43 44
44 45
45 46
46 47
47 48
48 49
49 50
50 51
51 52
52 53
53 54
54 55
55 56
56 57
