graphs/pace/raport/zmienne_worki/g_100_100_10.gr
p tw 100 60
16 99
13 22
13 35
22 35
5 82
32 34
32 78
34 78
3 43
46 74
45 81
38 40
8 69
8 84
69 84
65 76
29 86
14 60
25 53
23 89
23 90
89 90
19 52
48 79
37 58
18 71
18 95
71 95
27 47
30 73
28 61
31 42
31 56
42 56
20 54
20 87
20 96
54 87
54 96
87 96
1 26
1 51
1 66
1 72
26 51
26 66
26 72
51 66
51 72
66 72
2 15
2 98
15 98
11 88
39 41
10 59
21 63
21 83
63 83
17 68
